DATASET = "thpack3";
INSTANCE = "077";

WIDTH = 233;
HEIGHT = 220;
LENGTH = 587;

NO_OF_SHAPES = 8;
size = [|
  73,73,36 |
  87,49,26 |
  68,53,44 |
  73,57,33 |
  65,49,47 |
  80,65,35 |
  72,35,26 |
  75,68,40 |
|];

verticality = [|
  0,0,1 |
  0,1,1 |
  1,1,1 |
  0,1,1 |
  1,1,1 |
  0,1,1 |
  0,1,1 |
  1,1,1 |
|];

box_count = [
  28,
  21,
  34,
  26,
  26,
  28,
  24,
  14,
];
